p cnf 130 467
-4 3 0
-4 -2 0
-3 2 4 0
2 -4 -5 0
-2 4 -5 0
2 4 5 0
-2 -4 5 0
-6 -1 0
-6 -5 0
1 5 6 0
-9 -3 0
-9 8 0
3 -8 9 0
10 7 0
10 9 0
-7 -9 -10 0
-10 -11 -12 0
10 11 -12 0
-10 11 12 0
10 -11 12 0
-13 -11 -14 0
13 11 -14 0
-13 11 14 0
13 -11 14 0
15 -14 0
15 2 0
14 -2 -15 0
16 15 0
16 15 0
-15 -16 0
17 -12 0
17 -16 0
12 16 -17 0
-6 17 -18 0
6 -17 -18 0
-6 -17 18 0
6 17 18 0
20 -11 0
20 19 0
11 -19 -20 0
-1 20 -21 0
1 -20 -21 0
-1 -20 21 0
1 20 21 0
-22 -20 0
-22 21 0
20 -21 22 0
25 23 0
25 24 0
-23 -24 -25 0
-4 -20 -26 0
4 20 -26 0
-4 20 26 0
4 -20 26 0
-25 26 -27 0
25 -26 -27 0
-25 -26 27 0
25 26 27 0
22 -27 -28 0
-22 27 -28 0
22 27 28 0
-22 -27 28 0
-31 29 0
-31 -30 0
-29 30 31 0
32 -28 0
32 -31 0
28 31 -32 0
6 32 -33 0
-6 -32 -33 0
6 -32 33 0
-6 32 33 0
20 -29 -34 0
-20 29 -34 0
20 29 34 0
-20 -29 34 0
35 1 0
35 14 0
-1 -14 -35 0
-36 -24 0
-36 9 0
24 -9 36 0
-19 -9 -37 0
19 9 -37 0
-19 9 37 0
19 -9 37 0
-36 -37 -38 0
36 37 -38 0
-36 37 38 0
36 -37 38 0
-39 -35 0
-39 38 0
35 -38 39 0
-40 -34 0
-40 39 0
34 -39 40 0
-41 -33 0
-41 40 0
33 -40 41 0
-14 -29 -42 0
14 29 -42 0
-14 29 42 0
14 -29 42 0
-42 -1 -43 0
42 1 -43 0
-42 1 43 0
42 -1 43 0
-12 43 -44 0
12 -43 -44 0
-12 -43 44 0
12 43 44 0
4 1 -45 0
-4 -1 -45 0
4 -1 45 0
-4 1 45 0
-46 31 0
-46 45 0
-31 -45 46 0
44 46 -47 0
-44 -46 -47 0
44 -46 47 0
-44 46 47 0
48 -47 0
48 -25 0
47 25 -48 0
49 43 0
49 -48 0
-43 48 -49 0
-49 -42 -50 0
49 42 -50 0
-49 42 50 0
49 -42 50 0
52 -9 0
52 5 0
9 -5 -52 0
-51 -52 -53 0
51 52 -53 0
-51 52 53 0
51 -52 53 0
-54 -44 0
-54 -53 0
44 53 54 0
55 -39 0
55 -43 0
39 43 -55 0
56 -30 0
56 -55 0
30 55 -56 0
-57 -30 0
-57 -56 0
30 56 57 0
16 57 -58 0
-16 -57 -58 0
16 -57 58 0
-16 57 58 0
54 58 -59 0
-54 -58 -59 0
54 -58 59 0
-54 58 59 0
-60 -50 0
-60 59 0
50 -59 60 0
-61 -8 0
-61 7 0
8 -7 61 0
62 11 0
62 61 0
-11 -61 -62 0
-14 -62 -63 0
14 62 -63 0
-14 62 63 0
14 -62 63 0
64 -52 0
64 63 0
52 -63 -64 0
-65 -64 0
-65 7 0
64 -7 65 0
66 -44 0
66 42 0
44 -42 -66 0
-67 11 0
-67 -66 0
-11 66 67 0
-65 67 -68 0
65 -67 -68 0
-65 -67 68 0
65 67 68 0
-69 60 0
-69 68 0
-60 -68 69 0
41 69 -70 0
-41 -69 -70 0
41 -69 70 0
-41 69 70 0
-71 18 0
-71 -70 0
-18 70 71 0
9 28 -72 0
-9 -28 -72 0
9 -28 72 0
-9 28 72 0
-73 72 0
-73 -19 0
-72 19 73 0
48 31 -74 0
-48 -31 -74 0
48 -31 74 0
-48 31 74 0
73 74 -75 0
-73 -74 -75 0
73 -74 75 0
-73 74 75 0
-76 -11 0
-76 -46 0
11 46 76 0
-77 43 0
-77 -37 0
-43 37 77 0
-78 -2 0
-78 -77 0
2 77 78 0
79 -47 0
79 42 0
47 -42 -79 0
-80 -78 0
-80 -79 0
78 79 80 0
-81 -76 0
-81 -80 0
76 80 81 0
82 -75 0
82 81 0
75 -81 -82 0
-47 -36 -83 0
47 36 -83 0
-47 36 83 0
47 -36 83 0
84 2 0
84 55 0
-2 -55 -84 0
83 -84 -85 0
-83 84 -85 0
83 84 85 0
-83 -84 85 0
82 85 -86 0
-82 -85 -86 0
82 -85 86 0
-82 85 86 0
87 8 0
87 37 0
-8 -37 -87 0
-88 87 0
-88 -13 0
-87 13 88 0
-21 3 -89 0
21 -3 -89 0
-21 -3 89 0
21 3 89 0
62 -89 -90 0
-62 89 -90 0
62 89 90 0
-62 -89 90 0
-91 -13 0
-91 90 0
13 -90 91 0
92 62 0
92 -80 0
-62 80 -92 0
-93 91 0
-93 -92 0
-91 92 93 0
94 88 0
94 93 0
-88 -93 -94 0
-95 20 0
-95 -29 0
-20 29 95 0
96 95 0
96 -14 0
-95 14 -96 0
97 8 0
97 -3 0
-8 3 -97 0
-98 97 0
-98 17 0
-97 -17 98 0
100 99 0
100 -19 0
-99 19 -100 0
-98 100 -101 0
98 -100 -101 0
-98 -100 101 0
98 100 101 0
102 -96 0
102 101 0
96 -101 -102 0
4 -12 -103 0
-4 12 -103 0
4 12 103 0
-4 -12 103 0
104 -11 0
104 103 0
11 -103 -104 0
-105 -104 0
-105 -66 0
104 66 105 0
-106 -102 0
-106 -105 0
102 105 106 0
-94 106 -107 0
94 -106 -107 0
-94 -106 107 0
94 106 107 0
-108 -86 0
-108 107 0
86 -107 108 0
-109 80 0
-109 -21 0
-80 21 109 0
-110 109 0
-110 8 0
-109 -8 110 0
111 -11 0
111 77 0
11 -77 -111 0
-112 22 0
-112 77 0
-22 -77 112 0
-113 111 0
-113 -112 0
-111 112 113 0
-114 -3 0
-114 -7 0
3 7 114 0
-115 114 0
-115 1 0
-114 -1 115 0
23 -24 -116 0
-23 24 -116 0
23 24 116 0
-23 -24 116 0
117 -116 0
117 28 0
116 -28 -117 0
-115 -117 -118 0
115 117 -118 0
-115 117 118 0
115 -117 118 0
-119 113 0
-119 -118 0
-113 118 119 0
-120 -110 0
-120 -119 0
110 119 120 0
108 120 -121 0
-108 -120 -121 0
108 -120 121 0
-108 120 121 0
122 7 0
122 -109 0
-7 109 -122 0
123 87 0
123 -9 0
-87 9 -123 0
-122 -123 -124 0
122 123 -124 0
-122 123 124 0
122 -123 124 0
-125 -114 0
-125 -14 0
114 14 125 0
-43 4 -126 0
43 -4 -126 0
-43 -4 126 0
43 4 126 0
-127 125 0
-127 126 0
-125 -126 127 0
128 -124 0
128 127 0
124 -127 -128 0
-129 -121 0
-129 128 0
121 -128 129 0
130 71 0
130 -129 0
-71 129 -130 0
111 89 0
26 -98 45 50 0
72 -101 94 0
34 -115 5 83 121 101 0
-86 -57 23 -51 49 -41 0
-53 -42 0
63 19 121 -69 -18 0
62 -53 -57 127 -68 0
122 -102 125 -1 0
-93 -11 39 15 -16 0
72 119 -29 52 0
-92 2 0
-29 -114 0
43 -74 -1 24 80 0
95 -82 -13 -79 0
-38 29 2 103 0
-73 -47 -115 -7 91 0
21 -24 115 0
-87 4 45 -107 0
108 103 81 0
42 130 99 64 0
-100 -14 20 0
-24 87 -2 -123 0
56 120 0
-6 -48 -104 -28 0
-77 50 -42 58 62 0
-23 -46 13 129 0
25 -58 -127 0
-66 -16 -126 0
-101 -68 -119 -120 0
-120 36 44 0
-109 -41 -56 -129 0
-50 -43 -56 -94 130 85 0
26 -52 116 127 43 0
-62 -7 19 59 68 0
-61 91 -64 0
-106 31 -75 114 -64 0
43 89 -52 110 0
-85 113 92 -106 88 0
89 -30 0
81 -128 7 -126 -83 0
55 114 20 -35 0
99 -76 0
84 48 59 0
26 -89 0
3 23 9 0
85 59 -78 -67 83 111 0
-27 37 93 -111 0
-56 21 0
-64 -59 -121 29 111 0
121 78 114 0
89 59 -4 3 0
21 -109 99 0
-125 128 -79 -1 -127 50 0
-6 23 0
120 -109 103 25 22 -130 0
-85 -7 91 52 0
41 -15 0
-16 -66 23 105 0
-14 39 108 0
-103 -123 -104 0
26 128 109 0
99 -109 0
94 70 -106 47 -42 -33 0
123 -114 -63 -80 29 0
80 -77 23 0
98 81 0
-105 102 5 -8 0
93 -47 0
60 -66 -50 38 84 0
78 68 -91 0
-50 68 66 -104 59 0
-95 -49 -39 0
21 124 93 -52 0
-49 70 20 0
120 -62 -20 -19 -81 0
81 -64 62 -68 88 59 0
52 -49 -85 123 0
130 0
